c description: Random 2-CNF over 15 variables and 95 clauses
c generator: CNFgen (0.9.0)
c copyright: (C) 2012-2020 Massimo Lauria <massimo.lauria@uniroma1.it>
c url: https://massimolauria.net/cnfgen
c
p cnf 15 95
-3 5 0
3 -4 0
1 2 0
-2 -11 0
-5 7 0
-5 -9 0
11 -14 0
-4 7 0
-9 -10 0
2 6 0
7 -14 0
8 -9 0
-3 7 0
7 -10 0
-9 -15 0
8 10 0
10 11 0
9 10 0
-6 -8 0
-7 -13 0
3 4 0
3 8 0
-4 -10 0
2 11 0
-6 -10 0
3 -7 0
1 7 0
1 -6 0
-9 10 0
3 -14 0
-1 13 0
13 -14 0
-6 11 0
1 -8 0
-1 9 0
-3 -4 0
-2 12 0
5 -8 0
-2 -7 0
3 13 0
13 15 0
10 -11 0
-4 -8 0
-5 6 0
-8 15 0
-4 5 0
4 6 0
-4 -12 0
-7 14 0
7 12 0
6 -11 0
-8 -12 0
-3 -7 0
5 -7 0
-4 8 0
2 -13 0
-1 -5 0
2 10 0
-5 -7 0
1 11 0
-1 6 0
10 -15 0
9 13 0
2 -6 0
-10 -13 0
-6 8 0
4 -9 0
-5 12 0
-9 -12 0
11 -13 0
4 15 0
1 10 0
1 3 0
4 -5 0
5 -10 0
2 13 0
9 -10 0
1 -4 0
7 -9 0
-5 -11 0
5 -14 0
1 8 0
7 -11 0
-7 9 0
4 -14 0
-3 -13 0
5 10 0
6 9 0
-2 -9 0
2 -9 0
1 -15 0
-6 14 0
10 15 0
-6 -7 0
-5 8 0